c FILE /home/rafael/Documents/HappySet/MIHS/inputs/happygen/output/graph_scale_free_k2_p0.5_v100_20241127_083802.txt
c SOURCE This is a scale-free graph formed for the happy graph colouring problem.
c DESCRIPTION It was generated using the problem generator of Rhyd Lewis
c
c GRAPH STATS
c Seed                             = -2024822243
c Number of Nodes                  = 100
c Number of colours k              = 2
c Number of pre-assignments        = 50
c Number of links per new node     = 5
c Density                          = 0.0979798
c 
c The degrees of nodes 1 to 100, respectively, are as follows 
c [32, 31, 30, 30, 28, 27, 26, 24, 22, 20, 18, 17, 16, 16, 15, 15, 15, 15, 14, 14, 13, 13, 12, 12, 12, 11, 
c  11, 11, 10, 10, 10, 10, 10, 9, 8, 8, 8, 8, 7, 7, 7, 7, 7, 7, 7, 7, 7, 7, 7, 7, 7, 
c  6, 6, 6, 6, 6, 6, 6, 6, 6, 6, 6, 6, 6, 6, 6, 6, 6, 6, 6, 6, 6, 6, 6, 5, 5, 
c  5, 5, 5, 5, 5, 5, 5, 5, 5, 5, 5, 5, 5, 5, 5, 5, 5, 5, 5, 5, 5, 5, 5, 5] 
c  
p edge 100 485 2
e 1 2
e 1 7
e 1 8
e 1 12
e 1 16
e 1 19
e 1 20
e 1 21
e 1 22
e 1 27
e 1 28
e 1 29
e 1 33
e 1 35
e 1 37
e 1 38
e 1 39
e 1 41
e 1 44
e 1 46
e 1 47
e 1 52
e 1 54
e 1 59
e 1 61
e 1 65
e 1 72
e 1 75
e 1 87
e 1 91
e 1 96
e 1 100
e 2 3
e 2 4
e 2 5
e 2 6
e 2 7
e 2 8
e 2 9
e 2 10
e 2 14
e 2 17
e 2 22
e 2 23
e 2 24
e 2 25
e 2 26
e 2 27
e 2 29
e 2 30
e 2 31
e 2 33
e 2 36
e 2 40
e 2 47
e 2 52
e 2 59
e 2 60
e 2 63
e 2 72
e 2 92
e 2 99
e 3 4
e 3 5
e 3 6
e 3 7
e 3 8
e 3 9
e 3 10
e 3 11
e 3 12
e 3 13
e 3 18
e 3 20
e 3 23
e 3 30
e 3 34
e 3 35
e 3 45
e 3 63
e 3 64
e 3 71
e 3 76
e 3 77
e 3 78
e 3 83
e 3 85
e 3 90
e 3 94
e 3 99
e 3 100
e 4 5
e 4 6
e 4 7
e 4 8
e 4 9
e 4 10
e 4 13
e 4 20
e 4 21
e 4 24
e 4 26
e 4 27
e 4 28
e 4 29
e 4 30
e 4 31
e 4 38
e 4 39
e 4 42
e 4 43
e 4 53
e 4 67
e 4 76
e 4 80
e 4 81
e 4 87
e 4 90
e 4 95
e 5 6
e 5 7
e 5 8
e 5 12
e 5 13
e 5 14
e 5 15
e 5 17
e 5 20
e 5 23
e 5 26
e 5 29
e 5 31
e 5 32
e 5 39
e 5 41
e 5 44
e 5 47
e 5 53
e 5 65
e 5 67
e 5 68
e 5 73
e 5 93
e 5 97
e 6 8
e 6 10
e 6 12
e 6 13
e 6 14
e 6 17
e 6 18
e 6 19
e 6 23
e 6 25
e 6 26
e 6 34
e 6 45
e 6 49
e 6 53
e 6 55
e 6 61
e 6 64
e 6 76
e 6 79
e 6 82
e 6 83
e 6 84
e 7 10
e 7 11
e 7 12
e 7 22
e 7 27
e 7 36
e 7 39
e 7 40
e 7 41
e 7 44
e 7 47
e 7 50
e 7 52
e 7 56
e 7 58
e 7 61
e 7 62
e 7 64
e 7 69
e 7 76
e 7 81
e 8 9
e 8 10
e 8 11
e 8 15
e 8 16
e 8 18
e 8 19
e 8 21
e 8 23
e 8 46
e 8 52
e 8 56
e 8 60
e 8 62
e 8 71
e 8 77
e 8 93
e 8 98
e 9 10
e 9 11
e 9 12
e 9 17
e 9 20
e 9 22
e 9 30
e 9 32
e 9 34
e 9 40
e 9 43
e 9 50
e 9 54
e 9 64
e 9 66
e 9 71
e 9 82
e 9 89
e 10 13
e 10 15
e 10 26
e 10 28
e 10 29
e 10 31
e 10 35
e 10 51
e 10 53
e 10 59
e 10 61
e 10 78
e 10 95
e 11 13
e 11 28
e 11 34
e 11 35
e 11 36
e 11 42
e 11 44
e 11 58
e 11 59
e 11 62
e 11 66
e 11 68
e 11 77
e 11 98
e 12 15
e 12 16
e 12 21
e 12 32
e 12 41
e 12 55
e 12 58
e 12 60
e 12 83
e 12 85
e 12 96
e 13 15
e 13 17
e 13 19
e 13 24
e 13 27
e 13 37
e 13 40
e 13 42
e 13 81
e 13 95
e 14 18
e 14 19
e 14 25
e 14 26
e 14 32
e 14 40
e 14 55
e 14 62
e 14 73
e 14 88
e 14 89
e 14 92
e 14 97
e 15 16
e 15 25
e 15 30
e 15 56
e 15 63
e 15 70
e 15 73
e 15 85
e 15 96
e 15 99
e 16 23
e 16 33
e 16 37
e 16 39
e 16 41
e 16 45
e 16 56
e 16 59
e 16 68
e 16 78
e 16 84
e 17 24
e 17 38
e 17 44
e 17 56
e 17 57
e 17 67
e 17 69
e 17 81
e 17 86
e 17 94
e 18 27
e 18 33
e 18 38
e 18 53
e 18 54
e 18 57
e 18 60
e 18 65
e 18 80
e 18 86
e 18 99
e 19 26
e 19 32
e 19 36
e 19 48
e 19 51
e 19 57
e 19 79
e 19 90
e 19 97
e 20 33
e 20 42
e 20 57
e 20 75
e 20 80
e 20 89
e 20 90
e 20 96
e 20 98
e 21 27
e 21 31
e 21 43
e 21 46
e 21 60
e 21 63
e 21 65
e 21 67
e 21 78
e 22 23
e 22 37
e 22 49
e 22 68
e 22 79
e 22 82
e 22 85
e 22 97
e 22 100
e 23 24
e 23 42
e 23 57
e 23 70
e 23 75
e 24 36
e 24 48
e 24 54
e 24 69
e 24 72
e 24 77
e 24 94
e 25 29
e 25 38
e 25 43
e 25 45
e 25 48
e 25 62
e 25 68
e 25 90
e 26 29
e 26 52
e 26 55
e 26 75
e 27 37
e 27 75
e 27 91
e 27 92
e 28 36
e 28 48
e 28 67
e 28 72
e 28 74
e 28 84
e 28 96
e 29 34
e 29 48
e 29 70
e 30 45
e 30 66
e 30 69
e 30 74
e 30 100
e 31 35
e 31 51
e 31 65
e 31 66
e 31 81
e 32 64
e 32 76
e 32 80
e 32 91
e 32 95
e 33 43
e 33 46
e 33 58
e 33 77
e 33 79
e 34 71
e 34 73
e 34 86
e 34 88
e 35 49
e 35 80
e 35 82
e 36 51
e 36 84
e 37 74
e 37 82
e 37 87
e 38 70
e 38 93
e 38 95
e 39 49
e 39 50
e 40 54
e 40 92
e 41 55
e 41 98
e 42 58
e 42 74
e 43 46
e 43 69
e 44 79
e 44 88
e 45 47
e 45 50
e 46 66
e 46 89
e 47 49
e 47 88
e 48 72
e 48 94
e 49 83
e 49 92
e 50 60
e 50 71
e 50 91
e 51 67
e 51 88
e 51 89
e 52 73
e 53 78
e 54 74
e 55 63
e 56 86
e 57 61
e 58 84
e 59 97
e 61 83
e 62 98
e 63 87
e 64 87
e 65 100
e 66 70
e 68 85
e 69 86
e 70 93
e 71 99
e 72 91
e 73 93
e 74 94
n 4 1
n 14 1
n 15 2
n 18 1
n 21 1
n 26 1
n 32 1
n 33 1
n 34 2
n 35 2
n 36 2
n 39 1
n 40 1
n 41 2
n 42 1
n 44 1
n 45 1
n 46 1
n 47 1
n 50 1
n 52 1
n 53 1
n 54 1
n 56 2
n 57 1
n 58 1
n 59 1
n 60 1
n 67 1
n 68 1
n 69 2
n 70 2
n 72 1
n 74 1
n 75 1
n 76 1
n 77 1
n 78 1
n 79 1
n 81 1
n 82 2
n 83 1
n 91 1
n 92 1
n 93 2
n 94 1
n 95 1
n 96 2
n 97 1
n 98 2
